p tw 96 108
1 2
2 13
3 4
4 5
5 6
6 7
7 8
8 9
9 10
9 16
10 11
11 12
12 14
13 24
13 35
14 15
15 95
16 17
17 18
18 19
19 20
20 21
20 47
21 22
22 23
23 25
24 35
24 3
25 26
26 27
27 28
28 29
29 30
30 31
31 32
32 33
32 43
33 34
34 36
35 46
36 37
37 38
38 39
39 40
40 41
40 43
41 42
42 23
43 44
44 45
44 47
45 95
46 57
47 48
48 49
49 50
50 51
51 52
51 56
52 53
53 54
54 55
55 95
56 58
57 68
58 59
59 60
60 61
61 62
61 80
62 63
63 64
64 65
65 66
66 67
67 69
68 79
69 70
70 71
70 93
71 72
72 73
73 74
74 75
74 76
75 95
76 77
77 78
78 62
79 90
80 81
81 82
82 83
83 84
84 85
85 86
86 87
86 88
87 95
88 89
89 91
90 95
91 92
92 93
92 82
93 94
94 95
95 96
